100
32
19
16
25
21
25
9
11
1
14
6
28
15
3
4
4
4
22
1
11
11
1
3
25
4
2
1
1
2
16
1
3
2
4
1
3
1
1
17
1
17
2
2
1
3
18
1
2
7
1
5
2
1
1
17
5
1
3
1
4
3
4
2
1
1
2
2
18
3
20
4
1
6
18
1
4
1
4
1
4
1
18
1
3
1
1
4
7
1
1
1
1
7
1
2
1
1
1
3
17
1